data/lp_files/q3/54_9.lp
\ Model foo
\ LP format - for model browsing. Use MPS format to capture full model detail.
Minimize
  z
Subject To
 allocateEach[1]: x[1,1] + x[2,1] + x[3,1] = 1
 allocateEach[2]: x[1,2] + x[2,2] + x[3,2] = 1
 allocateEach[3]: x[1,3] + x[2,3] + x[3,3] = 1
 allocateEach[4]: x[1,4] + x[2,4] + x[3,4] = 1
 allocateEach[5]: x[1,5] + x[2,5] + x[3,5] = 1
 allocateEach[6]: x[1,6] + x[2,6] + x[3,6] = 1
 allocateEach[7]: x[1,7] + x[2,7] + x[3,7] = 1
 allocateEach[8]: x[1,8] + x[2,8] + x[3,8] = 1
 allocateEach[9]: x[1,9] + x[2,9] + x[3,9] = 1
 allocateEach[10]: x[1,10] + x[2,10] + x[3,10] = 1
 allocateEach[11]: x[1,11] + x[2,11] + x[3,11] = 1
 allocateEach[12]: x[1,12] + x[2,12] + x[3,12] = 1
 allocateEach[13]: x[1,13] + x[2,13] + x[3,13] = 1
 allocateEach[14]: x[1,14] + x[2,14] + x[3,14] = 1
 allocateAllCash: cashProportion[1] + cashProportion[2] + cashProportion[3]
   = 1
 findWorstP[1,2]: z + 0.1359452956130453 cashProportion[1]
   - 0.1359452956130453 cashProportion[2] + 0.00335784880164222 x[1,1]
   + 0.02896994249514 x[1,2] + 0.1275166872850365 x[1,3]
   + 0.1334982802920105 x[1,4] + 0.0678231079813483 x[1,5]
   + 0.0386084639541049 x[1,6] + 0.0402262129719001 x[1,7]
   + 0.0103046534074688 x[1,8] + 0.0554384915509999 x[1,9]
   + 0.1025435364809201 x[1,10] + 0.0439511140716975 x[1,11]
   + 0.1311328321483435 x[1,12] + 0.029731236150573 x[1,13]
   + 0.0509522967957694 x[1,14] - 0.00335784880164222 x[2,1]
   - 0.02896994249514 x[2,2] - 0.1275166872850365 x[2,3]
   - 0.1334982802920105 x[2,4] - 0.0678231079813483 x[2,5]
   - 0.0386084639541049 x[2,6] - 0.0402262129719001 x[2,7]
   - 0.0103046534074688 x[2,8] - 0.0554384915509999 x[2,9]
   - 0.1025435364809201 x[2,10] - 0.0439511140716975 x[2,11]
   - 0.1311328321483435 x[2,12] - 0.029731236150573 x[2,13]
   - 0.0509522967957694 x[2,14] >= 0
 findWorstP[1,3]: z + 0.1359452956130453 cashProportion[1]
   - 0.1359452956130453 cashProportion[3] + 0.00335784880164222 x[1,1]
   + 0.02896994249514 x[1,2] + 0.1275166872850365 x[1,3]
   + 0.1334982802920105 x[1,4] + 0.0678231079813483 x[1,5]
   + 0.0386084639541049 x[1,6] + 0.0402262129719001 x[1,7]
   + 0.0103046534074688 x[1,8] + 0.0554384915509999 x[1,9]
   + 0.1025435364809201 x[1,10] + 0.0439511140716975 x[1,11]
   + 0.1311328321483435 x[1,12] + 0.029731236150573 x[1,13]
   + 0.0509522967957694 x[1,14] - 0.00335784880164222 x[3,1]
   - 0.02896994249514 x[3,2] - 0.1275166872850365 x[3,3]
   - 0.1334982802920105 x[3,4] - 0.0678231079813483 x[3,5]
   - 0.0386084639541049 x[3,6] - 0.0402262129719001 x[3,7]
   - 0.0103046534074688 x[3,8] - 0.0554384915509999 x[3,9]
   - 0.1025435364809201 x[3,10] - 0.0439511140716975 x[3,11]
   - 0.1311328321483435 x[3,12] - 0.029731236150573 x[3,13]
   - 0.0509522967957694 x[3,14] >= 0
 findWorstP[2,1]: z - 0.1174770626035267 cashProportion[1]
   + 0.1174770626035267 cashProportion[2] - 0.0288523665754261 x[1,1]
   - 0.071684503600672 x[1,2] - 0.0463212057845706 x[1,3]
   - 0.0794967282638065 x[1,4] - 0.0189138070791678 x[1,5]
   - 0.0556488845552906 x[1,6] - 0.023119485920374 x[1,7]
   - 0.1087132737333036 x[1,8] - 0.080448292470895 x[1,9]
   - 0.076183875098387 x[1,10] - 0.0520188433208416 x[1,11]
   - 0.1145518837446988 x[1,12] - 0.0286878986877812 x[1,13]
   - 0.0978818885612584 x[1,14] + 0.0288523665754261 x[2,1]
   + 0.071684503600672 x[2,2] + 0.0463212057845706 x[2,3]
   + 0.0794967282638065 x[2,4] + 0.0189138070791678 x[2,5]
   + 0.0556488845552906 x[2,6] + 0.023119485920374 x[2,7]
   + 0.1087132737333036 x[2,8] + 0.080448292470895 x[2,9]
   + 0.076183875098387 x[2,10] + 0.0520188433208416 x[2,11]
   + 0.1145518837446988 x[2,12] + 0.0286878986877812 x[2,13]
   + 0.0978818885612584 x[2,14] >= 0
 findWorstP[2,3]: z + 0.1174770626035267 cashProportion[2]
   - 0.1174770626035267 cashProportion[3] + 0.0288523665754261 x[2,1]
   + 0.071684503600672 x[2,2] + 0.0463212057845706 x[2,3]
   + 0.0794967282638065 x[2,4] + 0.0189138070791678 x[2,5]
   + 0.0556488845552906 x[2,6] + 0.023119485920374 x[2,7]
   + 0.1087132737333036 x[2,8] + 0.080448292470895 x[2,9]
   + 0.076183875098387 x[2,10] + 0.0520188433208416 x[2,11]
   + 0.1145518837446988 x[2,12] + 0.0286878986877812 x[2,13]
   + 0.0978818885612584 x[2,14] - 0.0288523665754261 x[3,1]
   - 0.071684503600672 x[3,2] - 0.0463212057845706 x[3,3]
   - 0.0794967282638065 x[3,4] - 0.0189138070791678 x[3,5]
   - 0.0556488845552906 x[3,6] - 0.023119485920374 x[3,7]
   - 0.1087132737333036 x[3,8] - 0.080448292470895 x[3,9]
   - 0.076183875098387 x[3,10] - 0.0520188433208416 x[3,11]
   - 0.1145518837446988 x[3,12] - 0.0286878986877812 x[3,13]
   - 0.0978818885612584 x[3,14] >= 0
 findWorstP[3,1]: z - 0.1417514813029797 cashProportion[1]
   + 0.1417514813029797 cashProportion[3] - 0.1338133983500128 x[1,1]
   - 0.0141042723896465 x[1,2] - 0.0264366512630057 x[1,3]
   - 0.1170158478156097 x[1,4] - 0.0242111530065489 x[1,5]
   - 0.1171434241487824 x[1,6] - 0.0421568905395061 x[1,7]
   - 0.0893601338133984 x[1,8] - 0.0344597851047544 x[1,9]
   - 0.0359765259546962 x[1,10] - 0.0134947410200437 x[1,11]
   - 0.0813937005641709 x[1,12] - 0.1165764182235704 x[1,13]
   - 0.0121055765032745 x[1,14] + 0.1338133983500128 x[3,1]
   + 0.0141042723896465 x[3,2] + 0.0264366512630057 x[3,3]
   + 0.1170158478156097 x[3,4] + 0.0242111530065489 x[3,5]
   + 0.1171434241487824 x[3,6] + 0.0421568905395061 x[3,7]
   + 0.0893601338133984 x[3,8] + 0.0344597851047544 x[3,9]
   + 0.0359765259546962 x[3,10] + 0.0134947410200437 x[3,11]
   + 0.0813937005641709 x[3,12] + 0.1165764182235704 x[3,13]
   + 0.0121055765032745 x[3,14] >= 0
 findWorstP[3,2]: z - 0.1417514813029797 cashProportion[2]
   + 0.1417514813029797 cashProportion[3] - 0.1338133983500128 x[2,1]
   - 0.0141042723896465 x[2,2] - 0.0264366512630057 x[2,3]
   - 0.1170158478156097 x[2,4] - 0.0242111530065489 x[2,5]
   - 0.1171434241487824 x[2,6] - 0.0421568905395061 x[2,7]
   - 0.0893601338133984 x[2,8] - 0.0344597851047544 x[2,9]
   - 0.0359765259546962 x[2,10] - 0.0134947410200437 x[2,11]
   - 0.0813937005641709 x[2,12] - 0.1165764182235704 x[2,13]
   - 0.0121055765032745 x[2,14] + 0.1338133983500128 x[3,1]
   + 0.0141042723896465 x[3,2] + 0.0264366512630057 x[3,3]
   + 0.1170158478156097 x[3,4] + 0.0242111530065489 x[3,5]
   + 0.1171434241487824 x[3,6] + 0.0421568905395061 x[3,7]
   + 0.0893601338133984 x[3,8] + 0.0344597851047544 x[3,9]
   + 0.0359765259546962 x[3,10] + 0.0134947410200437 x[3,11]
   + 0.0813937005641709 x[3,12] + 0.1165764182235704 x[3,13]
   + 0.0121055765032745 x[3,14] >= 0
Bounds
 z <= 1
 -infinity <= cashProportion[1] <= 1
 -infinity <= cashProportion[2] <= 1
 -infinity <= cashProportion[3] <= 1
Binaries
 x[1,1] x[1,2] x[1,3] x[1,4] x[1,5] x[1,6] x[1,7] x[1,8] x[1,9] x[1,10]
 x[1,11] x[1,12] x[1,13] x[1,14] x[2,1] x[2,2] x[2,3] x[2,4] x[2,5] x[2,6]
 x[2,7] x[2,8] x[2,9] x[2,10] x[2,11] x[2,12] x[2,13] x[2,14] x[3,1] x[3,2]
 x[3,3] x[3,4] x[3,5] x[3,6] x[3,7] x[3,8] x[3,9] x[3,10] x[3,11] x[3,12]
 x[3,13] x[3,14]
End
