data/mps_files/pEFS/54_9.mps
NAME foo
ROWS
 N  OBJ
 E  allocateEach[1]
 E  allocateEach[2]
 E  allocateEach[3]
 E  allocateEach[4]
 E  allocateEach[5]
 E  allocateEach[6]
 E  allocateEach[7]
 E  allocateEach[8]
 E  allocateEach[9]
 E  allocateEach[10]
 E  allocateEach[11]
 E  allocateEach[12]
 E  allocateEach[13]
 E  allocateEach[14]
 E  allocateAllCash
 G  findWorstP[1,2]
 G  findWorstP[1,3]
 G  findWorstP[2,1]
 G  findWorstP[2,3]
 G  findWorstP[3,1]
 G  findWorstP[3,2]
COLUMNS
    z         OBJ       1
    z         findWorstP[1,2]  1
    z         findWorstP[1,3]  1
    z         findWorstP[2,1]  1
    z         findWorstP[2,3]  1
    z         findWorstP[3,1]  1
    z         findWorstP[3,2]  1
    cashProportion[1]  allocateAllCash  1
    cashProportion[1]  findWorstP[1,2]  1.3594529561304533e-01
    cashProportion[1]  findWorstP[1,3]  1.3594529561304533e-01
    cashProportion[1]  findWorstP[2,1]  -1.1747706260352667e-01
    cashProportion[1]  findWorstP[3,1]  -1.4175148130297965e-01
    cashProportion[2]  allocateAllCash  1
    cashProportion[2]  findWorstP[1,2]  -1.3594529561304533e-01
    cashProportion[2]  findWorstP[2,1]  1.1747706260352667e-01
    cashProportion[2]  findWorstP[2,3]  1.1747706260352667e-01
    cashProportion[2]  findWorstP[3,2]  -1.4175148130297965e-01
    cashProportion[3]  allocateAllCash  1
    cashProportion[3]  findWorstP[1,3]  -1.3594529561304533e-01
    cashProportion[3]  findWorstP[2,3]  -1.1747706260352667e-01
    cashProportion[3]  findWorstP[3,1]  1.4175148130297965e-01
    cashProportion[3]  findWorstP[3,2]  1.4175148130297965e-01
    MARKER    'MARKER'                 'INTORG'
    x[1,1]    allocateEach[1]  1
    x[1,1]    findWorstP[1,2]  3.3578488016422188e-03
    x[1,1]    findWorstP[1,3]  3.3578488016422188e-03
    x[1,1]    findWorstP[2,1]  -2.8852366575426145e-02
    x[1,1]    findWorstP[3,1]  -1.3381339835001277e-01
    x[1,2]    allocateEach[2]  1
    x[1,2]    findWorstP[1,2]  2.8969942495139955e-02
    x[1,2]    findWorstP[1,3]  2.8969942495139955e-02
    x[1,2]    findWorstP[2,1]  -7.1684503600671953e-02
    x[1,2]    findWorstP[3,1]  -1.4104272389646474e-02
    x[1,3]    allocateEach[3]  1
    x[1,3]    findWorstP[1,2]  1.2751668728503648e-01
    x[1,3]    findWorstP[1,3]  1.2751668728503648e-01
    x[1,3]    findWorstP[2,1]  -4.6321205784570552e-02
    x[1,3]    findWorstP[3,1]  -0.0264366512630057
    x[1,4]    allocateEach[4]  1
    x[1,4]    findWorstP[1,2]  1.3349828029201050e-01
    x[1,4]    findWorstP[1,3]  1.3349828029201050e-01
    x[1,4]    findWorstP[2,1]  -7.9496728263806479e-02
    x[1,4]    findWorstP[3,1]  -1.1701584781560968e-01
    x[1,5]    allocateEach[5]  1
    x[1,5]    findWorstP[1,2]  0.0678231079813483
    x[1,5]    findWorstP[1,3]  0.0678231079813483
    x[1,5]    findWorstP[2,1]  -1.8913807079167788e-02
    x[1,5]    findWorstP[3,1]  -2.4211153006548920e-02
    x[1,6]    allocateEach[6]  1
    x[1,6]    findWorstP[1,2]  3.8608463954104860e-02
    x[1,6]    findWorstP[1,3]  3.8608463954104860e-02
    x[1,6]    findWorstP[2,1]  -5.5648884555290573e-02
    x[1,6]    findWorstP[3,1]  -1.1714342414878237e-01
    x[1,7]    allocateEach[7]  1
    x[1,7]    findWorstP[1,2]  4.0226212971900106e-02
    x[1,7]    findWorstP[1,3]  4.0226212971900106e-02
    x[1,7]    findWorstP[2,1]  -2.3119485920374043e-02
    x[1,7]    findWorstP[3,1]  -4.2156890539506144e-02
    x[1,8]    allocateEach[8]  1
    x[1,8]    findWorstP[1,2]  1.0304653407468835e-02
    x[1,8]    findWorstP[1,3]  1.0304653407468835e-02
    x[1,8]    findWorstP[2,1]  -1.0871327373330356e-01
    x[1,8]    findWorstP[3,1]  -8.9360133813398357e-02
    x[1,9]    allocateEach[9]  1
    x[1,9]    findWorstP[1,2]  5.5438491550999877e-02
    x[1,9]    findWorstP[1,3]  5.5438491550999877e-02
    x[1,9]    findWorstP[2,1]  -8.0448292470895036e-02
    x[1,9]    findWorstP[3,1]  -3.4459785104754351e-02
    x[1,10]   allocateEach[10]  1
    x[1,10]   findWorstP[1,2]  1.0254353648092007e-01
    x[1,10]   findWorstP[1,3]  1.0254353648092007e-01
    x[1,10]   findWorstP[2,1]  -7.6183875098387019e-02
    x[1,10]   findWorstP[3,1]  -3.5976525954696234e-02
    x[1,11]   allocateEach[11]  1
    x[1,11]   findWorstP[1,2]  4.3951114071697543e-02
    x[1,11]   findWorstP[1,3]  4.3951114071697543e-02
    x[1,11]   findWorstP[2,1]  -0.0520188433208416
    x[1,11]   findWorstP[3,1]  -1.3494741020043661e-02
    x[1,12]   allocateEach[12]  1
    x[1,12]   findWorstP[1,2]  1.3113283214834351e-01
    x[1,12]   findWorstP[1,3]  1.3113283214834351e-01
    x[1,12]   findWorstP[2,1]  -1.1455188374469882e-01
    x[1,12]   findWorstP[3,1]  -0.0813937005641709
    x[1,13]   allocateEach[13]  1
    x[1,13]   findWorstP[1,2]  2.9731236150573010e-02
    x[1,13]   findWorstP[1,3]  2.9731236150573010e-02
    x[1,13]   findWorstP[2,1]  -2.8687898687781207e-02
    x[1,13]   findWorstP[3,1]  -1.1657641822357044e-01
    x[1,14]   allocateEach[14]  1
    x[1,14]   findWorstP[1,2]  5.0952296795769382e-02
    x[1,14]   findWorstP[1,3]  5.0952296795769382e-02
    x[1,14]   findWorstP[2,1]  -0.0978818885612584
    x[1,14]   findWorstP[3,1]  -1.2105576503274460e-02
    x[2,1]    allocateEach[1]  1
    x[2,1]    findWorstP[1,2]  -3.3578488016422188e-03
    x[2,1]    findWorstP[2,1]  2.8852366575426145e-02
    x[2,1]    findWorstP[2,3]  2.8852366575426145e-02
    x[2,1]    findWorstP[3,2]  -1.3381339835001277e-01
    x[2,2]    allocateEach[2]  1
    x[2,2]    findWorstP[1,2]  -2.8969942495139955e-02
    x[2,2]    findWorstP[2,1]  7.1684503600671953e-02
    x[2,2]    findWorstP[2,3]  7.1684503600671953e-02
    x[2,2]    findWorstP[3,2]  -1.4104272389646474e-02
    x[2,3]    allocateEach[3]  1
    x[2,3]    findWorstP[1,2]  -1.2751668728503648e-01
    x[2,3]    findWorstP[2,1]  4.6321205784570552e-02
    x[2,3]    findWorstP[2,3]  4.6321205784570552e-02
    x[2,3]    findWorstP[3,2]  -0.0264366512630057
    x[2,4]    allocateEach[4]  1
    x[2,4]    findWorstP[1,2]  -1.3349828029201050e-01
    x[2,4]    findWorstP[2,1]  7.9496728263806479e-02
    x[2,4]    findWorstP[2,3]  7.9496728263806479e-02
    x[2,4]    findWorstP[3,2]  -1.1701584781560968e-01
    x[2,5]    allocateEach[5]  1
    x[2,5]    findWorstP[1,2]  -0.0678231079813483
    x[2,5]    findWorstP[2,1]  1.8913807079167788e-02
    x[2,5]    findWorstP[2,3]  1.8913807079167788e-02
    x[2,5]    findWorstP[3,2]  -2.4211153006548920e-02
    x[2,6]    allocateEach[6]  1
    x[2,6]    findWorstP[1,2]  -3.8608463954104860e-02
    x[2,6]    findWorstP[2,1]  5.5648884555290573e-02
    x[2,6]    findWorstP[2,3]  5.5648884555290573e-02
    x[2,6]    findWorstP[3,2]  -1.1714342414878237e-01
    x[2,7]    allocateEach[7]  1
    x[2,7]    findWorstP[1,2]  -4.0226212971900106e-02
    x[2,7]    findWorstP[2,1]  2.3119485920374043e-02
    x[2,7]    findWorstP[2,3]  2.3119485920374043e-02
    x[2,7]    findWorstP[3,2]  -4.2156890539506144e-02
    x[2,8]    allocateEach[8]  1
    x[2,8]    findWorstP[1,2]  -1.0304653407468835e-02
    x[2,8]    findWorstP[2,1]  1.0871327373330356e-01
    x[2,8]    findWorstP[2,3]  1.0871327373330356e-01
    x[2,8]    findWorstP[3,2]  -8.9360133813398357e-02
    x[2,9]    allocateEach[9]  1
    x[2,9]    findWorstP[1,2]  -5.5438491550999877e-02
    x[2,9]    findWorstP[2,1]  8.0448292470895036e-02
    x[2,9]    findWorstP[2,3]  8.0448292470895036e-02
    x[2,9]    findWorstP[3,2]  -3.4459785104754351e-02
    x[2,10]   allocateEach[10]  1
    x[2,10]   findWorstP[1,2]  -1.0254353648092007e-01
    x[2,10]   findWorstP[2,1]  7.6183875098387019e-02
    x[2,10]   findWorstP[2,3]  7.6183875098387019e-02
    x[2,10]   findWorstP[3,2]  -3.5976525954696234e-02
    x[2,11]   allocateEach[11]  1
    x[2,11]   findWorstP[1,2]  -4.3951114071697543e-02
    x[2,11]   findWorstP[2,1]  0.0520188433208416
    x[2,11]   findWorstP[2,3]  0.0520188433208416
    x[2,11]   findWorstP[3,2]  -1.3494741020043661e-02
    x[2,12]   allocateEach[12]  1
    x[2,12]   findWorstP[1,2]  -1.3113283214834351e-01
    x[2,12]   findWorstP[2,1]  1.1455188374469882e-01
    x[2,12]   findWorstP[2,3]  1.1455188374469882e-01
    x[2,12]   findWorstP[3,2]  -0.0813937005641709
    x[2,13]   allocateEach[13]  1
    x[2,13]   findWorstP[1,2]  -2.9731236150573010e-02
    x[2,13]   findWorstP[2,1]  2.8687898687781207e-02
    x[2,13]   findWorstP[2,3]  2.8687898687781207e-02
    x[2,13]   findWorstP[3,2]  -1.1657641822357044e-01
    x[2,14]   allocateEach[14]  1
    x[2,14]   findWorstP[1,2]  -5.0952296795769382e-02
    x[2,14]   findWorstP[2,1]  0.0978818885612584
    x[2,14]   findWorstP[2,3]  0.0978818885612584
    x[2,14]   findWorstP[3,2]  -1.2105576503274460e-02
    x[3,1]    allocateEach[1]  1
    x[3,1]    findWorstP[1,3]  -3.3578488016422188e-03
    x[3,1]    findWorstP[2,3]  -2.8852366575426145e-02
    x[3,1]    findWorstP[3,1]  1.3381339835001277e-01
    x[3,1]    findWorstP[3,2]  1.3381339835001277e-01
    x[3,2]    allocateEach[2]  1
    x[3,2]    findWorstP[1,3]  -2.8969942495139955e-02
    x[3,2]    findWorstP[2,3]  -7.1684503600671953e-02
    x[3,2]    findWorstP[3,1]  1.4104272389646474e-02
    x[3,2]    findWorstP[3,2]  1.4104272389646474e-02
    x[3,3]    allocateEach[3]  1
    x[3,3]    findWorstP[1,3]  -1.2751668728503648e-01
    x[3,3]    findWorstP[2,3]  -4.6321205784570552e-02
    x[3,3]    findWorstP[3,1]  0.0264366512630057
    x[3,3]    findWorstP[3,2]  0.0264366512630057
    x[3,4]    allocateEach[4]  1
    x[3,4]    findWorstP[1,3]  -1.3349828029201050e-01
    x[3,4]    findWorstP[2,3]  -7.9496728263806479e-02
    x[3,4]    findWorstP[3,1]  1.1701584781560968e-01
    x[3,4]    findWorstP[3,2]  1.1701584781560968e-01
    x[3,5]    allocateEach[5]  1
    x[3,5]    findWorstP[1,3]  -0.0678231079813483
    x[3,5]    findWorstP[2,3]  -1.8913807079167788e-02
    x[3,5]    findWorstP[3,1]  2.4211153006548920e-02
    x[3,5]    findWorstP[3,2]  2.4211153006548920e-02
    x[3,6]    allocateEach[6]  1
    x[3,6]    findWorstP[1,3]  -3.8608463954104860e-02
    x[3,6]    findWorstP[2,3]  -5.5648884555290573e-02
    x[3,6]    findWorstP[3,1]  1.1714342414878237e-01
    x[3,6]    findWorstP[3,2]  1.1714342414878237e-01
    x[3,7]    allocateEach[7]  1
    x[3,7]    findWorstP[1,3]  -4.0226212971900106e-02
    x[3,7]    findWorstP[2,3]  -2.3119485920374043e-02
    x[3,7]    findWorstP[3,1]  4.2156890539506144e-02
    x[3,7]    findWorstP[3,2]  4.2156890539506144e-02
    x[3,8]    allocateEach[8]  1
    x[3,8]    findWorstP[1,3]  -1.0304653407468835e-02
    x[3,8]    findWorstP[2,3]  -1.0871327373330356e-01
    x[3,8]    findWorstP[3,1]  8.9360133813398357e-02
    x[3,8]    findWorstP[3,2]  8.9360133813398357e-02
    x[3,9]    allocateEach[9]  1
    x[3,9]    findWorstP[1,3]  -5.5438491550999877e-02
    x[3,9]    findWorstP[2,3]  -8.0448292470895036e-02
    x[3,9]    findWorstP[3,1]  3.4459785104754351e-02
    x[3,9]    findWorstP[3,2]  3.4459785104754351e-02
    x[3,10]   allocateEach[10]  1
    x[3,10]   findWorstP[1,3]  -1.0254353648092007e-01
    x[3,10]   findWorstP[2,3]  -7.6183875098387019e-02
    x[3,10]   findWorstP[3,1]  3.5976525954696234e-02
    x[3,10]   findWorstP[3,2]  3.5976525954696234e-02
    x[3,11]   allocateEach[11]  1
    x[3,11]   findWorstP[1,3]  -4.3951114071697543e-02
    x[3,11]   findWorstP[2,3]  -0.0520188433208416
    x[3,11]   findWorstP[3,1]  1.3494741020043661e-02
    x[3,11]   findWorstP[3,2]  1.3494741020043661e-02
    x[3,12]   allocateEach[12]  1
    x[3,12]   findWorstP[1,3]  -1.3113283214834351e-01
    x[3,12]   findWorstP[2,3]  -1.1455188374469882e-01
    x[3,12]   findWorstP[3,1]  0.0813937005641709
    x[3,12]   findWorstP[3,2]  0.0813937005641709
    x[3,13]   allocateEach[13]  1
    x[3,13]   findWorstP[1,3]  -2.9731236150573010e-02
    x[3,13]   findWorstP[2,3]  -2.8687898687781207e-02
    x[3,13]   findWorstP[3,1]  1.1657641822357044e-01
    x[3,13]   findWorstP[3,2]  1.1657641822357044e-01
    x[3,14]   allocateEach[14]  1
    x[3,14]   findWorstP[1,3]  -5.0952296795769382e-02
    x[3,14]   findWorstP[2,3]  -0.0978818885612584
    x[3,14]   findWorstP[3,1]  1.2105576503274460e-02
    x[3,14]   findWorstP[3,2]  1.2105576503274460e-02
    MARKER    'MARKER'                 'INTEND'
RHS
    RHS1      allocateEach[1]  1
    RHS1      allocateEach[2]  1
    RHS1      allocateEach[3]  1
    RHS1      allocateEach[4]  1
    RHS1      allocateEach[5]  1
    RHS1      allocateEach[6]  1
    RHS1      allocateEach[7]  1
    RHS1      allocateEach[8]  1
    RHS1      allocateEach[9]  1
    RHS1      allocateEach[10]  1
    RHS1      allocateEach[11]  1
    RHS1      allocateEach[12]  1
    RHS1      allocateEach[13]  1
    RHS1      allocateEach[14]  1
    RHS1      allocateAllCash  1
BOUNDS
 UP BND1      z         1
 MI BND1      cashProportion[1]
 UP BND1      cashProportion[1]  1
 MI BND1      cashProportion[2]
 UP BND1      cashProportion[2]  1
 MI BND1      cashProportion[3]
 UP BND1      cashProportion[3]  1
 BV BND1      x[1,1]  
 BV BND1      x[1,2]  
 BV BND1      x[1,3]  
 BV BND1      x[1,4]  
 BV BND1      x[1,5]  
 BV BND1      x[1,6]  
 BV BND1      x[1,7]  
 BV BND1      x[1,8]  
 BV BND1      x[1,9]  
 BV BND1      x[1,10] 
 BV BND1      x[1,11] 
 BV BND1      x[1,12] 
 BV BND1      x[1,13] 
 BV BND1      x[1,14] 
 BV BND1      x[2,1]  
 BV BND1      x[2,2]  
 BV BND1      x[2,3]  
 BV BND1      x[2,4]  
 BV BND1      x[2,5]  
 BV BND1      x[2,6]  
 BV BND1      x[2,7]  
 BV BND1      x[2,8]  
 BV BND1      x[2,9]  
 BV BND1      x[2,10] 
 BV BND1      x[2,11] 
 BV BND1      x[2,12] 
 BV BND1      x[2,13] 
 BV BND1      x[2,14] 
 BV BND1      x[3,1]  
 BV BND1      x[3,2]  
 BV BND1      x[3,3]  
 BV BND1      x[3,4]  
 BV BND1      x[3,5]  
 BV BND1      x[3,6]  
 BV BND1      x[3,7]  
 BV BND1      x[3,8]  
 BV BND1      x[3,9]  
 BV BND1      x[3,10] 
 BV BND1      x[3,11] 
 BV BND1      x[3,12] 
 BV BND1      x[3,13] 
 BV BND1      x[3,14] 
ENDATA
